0 4856.66
1 4856.66
2 4809.02
3 4809.02
4 4809.02
5 4775.88
6 4770.33
7 4770.33
8 4770.33
9 4770.33
10 4754.04
11 4754.04
12 4705.05
13 4705.05
14 4705.05
15 4705.05
16 4705.05
17 4705.05
18 4705.05
19 4705.05
20 4705.05
21 4705.05
22 4705.05
23 4705.05
24 4682.50
25 4682.50
26 4682.50
27 4682.50
28 4682.50
29 4682.50
30 4682.50
31 4682.50
32 4682.50
33 4682.50
34 4682.50
35 4682.50
36 4682.50
37 4682.50
38 4660.07
39 4660.07
40 4654.20
41 4654.20
42 4654.20
43 4654.20
44 4654.20
45 4648.73
46 4648.73
47 4623.94
48 4623.94
49 4623.94
50 4623.94
51 4623.94
52 4623.94
53 4623.94
54 4623.94
55 4623.94
56 4623.94
57 4623.94
58 4623.94
59 4611.26
60 4611.26
61 4611.26
62 4611.26
63 4611.26
64 4611.26
65 4611.26
66 4611.26
67 4611.26
68 4611.26
69 4611.26
70 4611.26
71 4611.26
72 4611.26
73 4611.26
74 4611.26
75 4611.26
76 4611.26
77 4611.26
78 4611.26
79 4611.26
80 4611.26
81 4606.92
82 4606.92
83 4606.92
84 4606.92
85 4601.05
86 4601.05
87 4601.05
88 4601.05
89 4601.05
90 4601.05
91 4601.05
92 4601.05
93 4601.05
94 4601.05
95 4601.05
96 4601.05
97 4601.05
98 4601.05
99 4601.05
100 4601.05
101 4601.05
102 4601.05
103 4601.05
104 4601.05
105 4601.05
106 4601.05
107 4601.05
108 4601.05
109 4601.05
110 4601.05
111 4601.05
112 4601.05
113 4601.05
114 4601.05
115 4601.05
116 4601.05
117 4601.05
118 4601.05
119 4601.05
120 4601.05
121 4601.05
122 4601.05
123 4601.05
124 4601.05
125 4601.05
126 4601.05
127 4601.05
128 4601.05
129 4601.05
130 4601.05
131 4601.05
132 4601.05
133 4601.05
134 4601.05
135 4601.05
136 4601.05
137 4601.05
138 4600.47
139 4600.47
140 4600.47
141 4600.47
142 4598.11
143 4598.11
144 4598.11
145 4598.11
146 4598.11
147 4598.11
148 4598.11
149 4598.11
150 4598.11
151 4598.11
152 4598.10
153 4598.10
154 4598.10
155 4598.10
156 4598.10
157 4598.10
158 4598.10
159 4598.10
160 4598.10
161 4598.10
162 4598.10
163 4598.10
164 4577.18
165 4577.18
166 4577.18
167 4577.18
168 4577.18
169 4577.18
170 4577.18
171 4577.18
172 4577.18
173 4577.18
174 4577.18
175 4577.18
176 4577.18
177 4577.18
178 4577.18
179 4577.18
180 4577.18
181 4577.18
182 4577.18
183 4577.18
184 4577.18
185 4577.18
186 4577.18
187 4577.18
188 4577.18
189 4577.18
190 4577.18
191 4577.18
192 4577.18
193 4573.19
194 4573.19
195 4573.19
196 4573.19
197 4573.19
198 4573.19
199 4573.19
200 4570.55
201 4570.55
202 4570.55
203 4570.55
204 4570.55
205 4570.55
206 4570.55
207 4570.55
208 4570.55
209 4570.55
210 4570.55
211 4570.55
212 4570.55
213 4570.55
214 4570.55
215 4570.55
216 4570.55
217 4570.55
218 4570.55
219 4570.55
220 4570.55
221 4542.57
222 4542.57
223 4542.57
224 4542.57
225 4542.57
226 4542.57
227 4542.57
228 4542.57
229 4542.57
230 4542.57
231 4542.57
232 4542.57
233 4542.57
234 4542.57
235 4542.57
236 4542.57
237 4542.57
238 4542.57
239 4542.57
240 4542.57
241 4542.57
242 4542.57
243 4542.57
244 4542.57
245 4542.57
246 4542.57
247 4542.57
248 4542.57
249 4542.57
250 4542.57
251 4542.57
252 4542.57
253 4542.57
254 4542.57
255 4542.57
256 4542.57
257 4542.57
258 4542.57
259 4542.57
260 4542.57
261 4542.57
262 4542.57
263 4542.57
264 4542.57
265 4542.57
266 4542.57
267 4542.57
268 4542.57
269 4542.57
270 4542.57
271 4542.57
272 4542.57
273 4542.57
274 4542.57
275 4542.57
276 4542.57
277 4542.57
278 4542.57
279 4542.57
280 4542.57
281 4542.57
282 4542.57
283 4542.57
284 4542.57
285 4542.57
286 4542.57
287 4542.57
288 4542.57
289 4542.57
290 4541.71
291 4541.71
292 4541.71
293 4541.71
294 4541.71
295 4541.71
296 4541.71
297 4541.71
298 4541.71
299 4541.71
300 4541.71
301 4541.71
302 4541.71
303 4541.71
304 4541.71
305 4541.71
306 4541.71
307 4541.71
308 4541.71
309 4541.71
310 4541.71
311 4541.71
312 4541.71
313 4541.71
314 4541.71
315 4541.71
316 4541.71
317 4541.71
318 4541.71
319 4541.71
320 4541.71
321 4541.71
322 4541.71
323 4541.71
324 4541.71
325 4541.71
326 4541.71
327 4541.71
328 4536.60
329 4536.60
330 4536.60
331 4536.60
332 4536.60
333 4536.60
334 4536.60
335 4536.60
336 4536.60
337 4536.60
338 4536.60
339 4536.60
340 4536.60
341 4536.60
342 4536.60
343 4536.60
344 4536.60
345 4536.60
346 4536.60
347 4536.60
348 4536.60
349 4536.60
350 4536.60
351 4536.60
352 4536.60
353 4536.60
354 4536.60
355 4534.45
356 4534.45
357 4534.45
358 4534.45
359 4534.45
360 4534.45
361 4534.45
362 4534.45
363 4534.45
364 4534.45
365 4534.45
366 4534.45
367 4534.45
368 4534.45
369 4534.45
370 4534.45
371 4534.45
372 4534.45
373 4534.45
374 4534.45
375 4534.45
376 4534.45
377 4534.45
378 4534.45
379 4532.27
380 4532.27
381 4532.27
382 4532.27
383 4532.27
384 4532.27
385 4532.27
386 4532.27
387 4532.27
388 4532.27
389 4532.27
390 4532.27
391 4532.27
392 4532.27
393 4532.27
394 4532.27
395 4532.27
396 4532.27
397 4532.27
398 4532.27
399 4532.27
400 4532.27
401 4532.27
402 4532.27
403 4532.27
404 4532.27
405 4532.27
406 4532.27
407 4532.27
408 4532.27
409 4532.27
410 4532.27
411 4532.27
412 4532.27
413 4532.27
414 4532.27
415 4532.27
416 4532.27
417 4532.27
418 4532.27
419 4532.27
420 4532.27
421 4532.27
422 4532.27
423 4532.27
424 4532.27
425 4532.27
426 4532.27
427 4528.21
428 4528.21
429 4528.21
430 4528.21
431 4528.21
432 4528.21
433 4528.21
434 4528.21
435 4528.21
436 4528.21
437 4528.21
438 4528.21
439 4528.21
440 4528.21
441 4528.21
442 4528.21
443 4528.21
444 4528.21
445 4528.21
446 4527.35
447 4527.35
448 4527.35
449 4527.35
450 4527.35
451 4527.35
452 4527.35
453 4527.35
454 4527.35
455 4527.35
456 4527.35
457 4527.35
458 4527.35
459 4527.35
460 4527.35
461 4527.35
462 4527.35
463 4527.35
464 4527.35
465 4527.35
466 4527.35
467 4527.35
468 4527.35
469 4527.35
470 4527.35
471 4527.35
472 4527.35
473 4527.35
474 4527.35
475 4527.35
476 4527.35
477 4527.35
478 4527.35
479 4527.35
480 4527.35
481 4527.35
482 4527.35
483 4527.35
484 4527.35
485 4527.35
486 4527.35
487 4527.35
488 4527.35
489 4527.35
490 4527.35
491 4527.35
492 4527.35
493 4527.35
494 4527.35
495 4527.35
496 4527.35
497 4527.35
498 4527.35
499 4527.35
1 5 9 4 0 0 